4 
5  31 46 
6  01 20 27 35 42 50 57 
7  05 12 20 27 35 42 50 57 
8  05 12 20 27 35 42 50 57 
9  12 27 42 57 
10  12 27 42 57 
11  12 27 42 57 
12  12 27 43 57 
13  12 27 42 57 
14  12 27 42 49 57 
15  05 12 20 27 35 42 50 57 
16  05 12 20 27 35 42 50 57 
17  05 12 20 27 35 42 50 57 
18  05 12 19 27 42 57 
19  12 27 42 57 
20  12 27 39 54 
21  09 24 39 54 
22  09 22 37 53 
23  08 
0 
